33125 41231 
33538 40953 
32424 41567 
32943 41271 
32800 41356 
34152 40538 
33728 40895 
34590 40265 
34298 40480 
33444 41002 
34207 40497 
31932 41734 
31806 41784 
31626 41810 
32549 41519 
33249 41130 
32066 41656 
35109 39852 
32264 41573 
31532 41859 
31406 41909 
32149 41644 
31017 41925 
30240 41957 
